TERM = { '.', s0, s1, s11, s13, s15, s4, s5, s6, s8, s9, s18, s19, s20, s21, s22, s23};
null = '.';
s = 39;
n = 10;
ZEROARYOP = { ZEROARY_dummy };
zeroout = [ null ];
zerogas = [ 0 ];
zerosz =  [ 0 ];
zerolb =  [ 0 ];
zeroub =  [ 0 ];
UNARYOP = { MLOAD_0 };
unin = [ s19 ];
unout = [ s9 ];
ungas = [ 3 ];
unsz = [ 1 ];
unlb = [ 2 ];
unub = [ 34 ];
BINARYOP = { ADD_5, ADD_4, ADD_3, ADD_2, ADD_1, ADD_0 };
binin1 = [s9, s21, s1, s9, s9, s9 ];
binin2 = [s20, s0, s22, s23, s19, s21 ];
binout = [s8, s6, s5, s15, s13, s11 ];
bincomm = [true, true, true, true, true, true ];
bingas = [3, 3, 3, 3, 3, 3 ];
binsz = [1, 1, 1, 1, 1, 1 ];
binlb = [ 4, 2, 2, 4, 4, 4 ];
binub = [ 35, 38, 38, 37, 38, 38 ];
PUSHOP = { 'PUSH [tag]_0', PUSH_0, PUSH_1, PUSH_2, PUSH_3, PUSH_4, PUSH_5 };
pushout = [ s4, s18, s19, s20, s21, s22, s23 ];
pushgas = [ 3, 3, 3, 3, 3, 3, 3 ];
pushsz = [ 5, 2, 2, 2, 2, 33, 2 ];
pushlb = [ 1, 1, 1, 1, 1, 1, 1 ];
pushub = [ 39, 37, 37, 34, 37, 37, 36 ];
STOROP = { MSTORE_5, MSTORE_4, MSTORE_3, MSTORE_2, MSTORE_1, MSTORE_0 };
storin1 = [s0, s15, s13, s11, s9, s19 ];
storin2 = [s9, s18, s18, s18, s18, s8 ];
storlb = [ 13, 11, 11, 11, 9, 6 ];
storub = [ 39, 38, 39, 39, 39, 37 ];
startstack = [ s0, s1 ];
endstack = [ s4, s5, s6, s5 ];
before = [ S(MSTORE_4), S(MSTORE_0), S(MSTORE_0), S(MSTORE_0), S(MSTORE_0), U(MLOAD_0) ];
after = [ S(MSTORE_5), S(MSTORE_4), S(MSTORE_3), S(MSTORE_2), S(MSTORE_1), S(MSTORE_0) ];
